Version identifier: 22.1.1.0 | 2022-11-28 | 9160aff4d
CPXPARAM_ClockType                               1
CPXPARAM_Read_DataCheck                          1
CPXPARAM_Threads                                 1
CPXPARAM_Simplex_Tolerances_Optimality           1.0000000000000001e-09
CPXPARAM_TimeLimit                               7200
CPXPARAM_MIP_Tolerances_AbsMIPGap                0
CPXPARAM_MIP_Tolerances_MIPGap                   0
CPXPARAM_MIP_Tolerances_Integrality              0
Tried aggregator 1 time.
MIQP Presolve eliminated 27 rows and 9 columns.
MIQP Presolve modified 18 coefficients.
Reduced MIQP has 59954 rows, 22391 columns, and 208946 nonzeros.
Reduced MIQP has 21271 binaries, 1120 generals, 0 SOSs, and 0 indicators.
Reduced MIQP objective Q matrix has 1120 nonzeros.
Presolve time = 0.19 sec. (102.84 ticks)
Probing time = 0.03 sec. (7.00 ticks)
Tried aggregator 1 time.
Reduced MIQP has 59954 rows, 22391 columns, and 208946 nonzeros.
Reduced MIQP has 21271 binaries, 1120 generals, 0 SOSs, and 0 indicators.
Reduced MIQP objective Q matrix has 1120 nonzeros.
Presolve time = 0.17 sec. (91.44 ticks)
Classifier predicts products in MIQP should be linearized.
Probing time = 0.02 sec. (6.89 ticks)
Clique table members: 153.
MIP emphasis: balance optimality and feasibility.
MIP search method: dynamic search.
Parallel mode: none, using 1 thread.
Root relaxation solution time = 11.39 sec. (9113.05 ticks)

        Nodes                                         Cuts/
   Node  Left     Objective  IInf  Best Integer    Best Bound    ItCnt     Gap

      0     0    28000.0000  9597                  28000.0000        7         
      0     0    28000.0000 10674               ZeroHalf: 5555    33604         
      0     0    28000.0000 11009                  Cuts: 6075    70619         
Heuristic still looking.
      0     2    28000.0000 11009                  28000.0000    70619         
Elapsed time = 428.46 sec. (109348.91 ticks, tree = 0.01 MB, solutions = 0)
      2     4    28000.0000 11100                  28000.0000    70885         
      4     6    28000.0000 11209                  28000.0000    71123         
      5     7    28000.0000 11179                  28000.0000    71285         
      7     9    28000.0000 11226                  28000.0000    71752         
      8    10    28000.0000 11145                  28000.0000    71954         
     10    12    28000.0000 10988                  28000.0000    72278         
     11    13    28000.0000 11284                  28000.0000    72711         
     12    14    28000.0000 10989                  28000.0000    73049         
     13    15    28000.0000 11087                  28000.0000    73289         
     14    16    28000.0000 11270                  28000.0000    74571         
Elapsed time = 468.82 sec. (120266.18 ticks, tree = 0.19 MB, solutions = 0)
     16    18    28000.0000 11028                  28000.0000    75387         
     17    19    28000.0000 10920                  28000.0000    83157         
     18    20    28000.0000 10886                  28000.0000    86506         
     21    23    28000.0000 11060                  28000.0000    87123         
     24    26    28000.0000 11032                  28000.0000    88242         
     33    35    28000.0000 10957                  28000.0000    88973         
     38    40    28000.0000 10963                  28000.0000    89686         
     39    41    28000.0000 10807                  28000.0000    94214         
     42    44    28000.0000 10778                  28000.0000    96162         
     43    45    27999.6216 11306                  28000.0000   105958         
Elapsed time = 686.00 sec. (183608.81 ticks, tree = 0.57 MB, solutions = 0)
     44    46    27993.9902 11265                  28000.0000   117625         
     45    47    27990.1994 11430                  28000.0000   129730         
     46    48    27986.1269 11171                  28000.0000   140953         
     47    49    27991.1938 11146                  28000.0000   146326         
     48    50    27972.3011 11079                  28000.0000   155483         
     51    49    28000.0000 10957                  28000.0000   166131         
     57    55    28000.0000 11145                  28000.0000   166902         
     60    58    28000.0000 10938                  28000.0000   167352         
     66    64    28000.0000 10926                  28000.0000   168126         
     70    68    28000.0000 10973                  28000.0000   168460         
Elapsed time = 1411.91 sec. (406358.46 ticks, tree = 0.88 MB, solutions = 0)
     76    74    28000.0000 10924                  28000.0000   169168         
     80    78    28000.0000 10910                  28000.0000   169759         
     86    84    28000.0000 10913                  28000.0000   170606         
     90    88    28000.0000 10879                  28000.0000   171129         
     93    91    28000.0000 10844                  28000.0000   182824         
    100    98    28000.0000 10817                  28000.0000   183630         
    104   102    28000.0000 10963                  28000.0000   184395         
    110   108    28000.0000 10792                  28000.0000   185122         
    113   111    28000.0000 10798                  28000.0000   185679         
    116   114    28000.0000 10954                  28000.0000   186968         
Elapsed time = 1572.96 sec. (444460.54 ticks, tree = 1.49 MB, solutions = 0)
    119   117    28000.0000 10922                  28000.0000   188218         
    120   118    28000.0000 10744                  28000.0000   191542         
    125   123    28000.0000 10979                  28000.0000   192896         
    130   128    28000.0000 10725                  28000.0000   193937         
    134   132    28000.0000 10687                  28000.0000   196898         
    140   138    28000.0000 10665                  28000.0000   197538         
    146   144    28000.0000 10809                  28000.0000   198595         
    153   151    28000.0000 10617                  28000.0000   199570         
    160   158    28000.0000 10596                  28000.0000   200428         
    167   165    28000.0000 10624                  28000.0000   201298         
Elapsed time = 1678.72 sec. (474430.68 ticks, tree = 2.19 MB, solutions = 0)
    173   171    28000.0000 10617                  28000.0000   202044         
    180   178    28000.0000 10613                  28000.0000   202674         
    182   178    infeasible                        28000.0000   207520         
    183   179    27993.2509 10561                  28000.0000   211271         
    184   178    infeasible                        28000.0000   213699         
    187   179    27985.9583 10633                  28000.0000   221713         
    189   179    27977.7052 10602                  28000.0000   229662         
    191   177    infeasible                        28000.0000   234149         
    192   178    28000.0000 10667                  28000.0000   239902         
    196   180    27999.0000 10678                  28000.0000   240926         
Elapsed time = 1926.58 sec. (567260.45 ticks, tree = 2.40 MB, solutions = 0)
    198   180    infeasible                        28000.0000   257641         
    199   181    27997.1013 10940                  28000.0000   262518         
    200   180    infeasible                        28000.0000   264366         
    201   179    infeasible                        28000.0000   266475         
    202   180    28000.0000 10596                  28000.0000   285944         
    204   180    27999.9333 10550                  28000.0000   287782         
    208   180    28000.0000 11007                  28000.0000   310291         
    213   185    28000.0000 10875                  28000.0000   310891         
    219   187    28000.0000 10832                  28000.0000   330390         
    220   188    28000.0000 10842                  28000.0000   330462         
Elapsed time = 2770.37 sec. (822899.22 ticks, tree = 2.49 MB, solutions = 0)
    225   193    28000.0000 10840                  28000.0000   331106         
    227   195    28000.0000 10797                  28000.0000   333824         
    231   199    28000.0000 10796                  28000.0000   334446         
    237   205    28000.0000 10800                  28000.0000   335116         
    242   210    27999.0000 10795                  28000.0000   335711         
    247   215    27999.0000 10799                  28000.0000   336501         
    254   222    27999.0000 10815                  28000.0000   337173         
    260   228    27999.0000 10803                  28000.0000   337705         
    266   234    27999.0000 10794                  28000.0000   338399         
    271   235    infeasible                        28000.0000   339191         
Elapsed time = 2826.50 sec. (838080.10 ticks, tree = 3.15 MB, solutions = 0)
    272   236    28000.0000 10832                  28000.0000   353729         
    276   238    28000.0000 10898                  28000.0000   354712         
    280   242    28000.0000 10808                  28000.0000   355380         
    285   247    27999.8613 10805                  28000.0000   358892         
    290   250    27999.0000 10812                  28000.0000   359863         
    296   256    27999.0000 10796                  28000.0000   360787         
    300   260    27999.0000 10827                  28000.0000   361195         
    307   267    27999.0000 10764                  28000.0000   362173         
    314   274    27999.0000 10744                  28000.0000   362987         
    320   280    27999.0000 10741                  28000.0000   363845         
Elapsed time = 3000.24 sec. (888562.58 ticks, tree = 3.74 MB, solutions = 0)
    322   280    infeasible                        28000.0000   365058         
    324   280    28000.0000 10836                  28000.0000   367229         
    329   283    28000.0000 10806                  28000.0000   368231         
    336   290    28000.0000 10808                  28000.0000   369095         
    344   298    28000.0000 10798                  28000.0000   369941         
    350   304    28000.0000 10777                  28000.0000   370759         
    359   313    28000.0000 10778                  28000.0000   371611         
    360   314    28000.0000 10768                  28000.0000   371765         
    365   317    infeasible                        28000.0000   372759         
    368   316    28000.0000 10882                  28000.0000   383570         
Elapsed time = 3155.74 sec. (932708.75 ticks, tree = 4.23 MB, solutions = 0)
    387   333    27999.9773 10855                  28000.0000   388672         
    396   339    infeasible                        28000.0000   393844         
    400   343    27999.0000 10808                  28000.0000   394360         
    427   368    27998.9996 11261                  28000.0000   402086         
    428   367    infeasible                        28000.0000   412661         
    429   368    27963.6742 11267                  28000.0000   424540         
    432   367    28000.0000 10984                  28000.0000   433043         
    444   375    28000.0000 10949                  28000.0000   435765         
    465   396    28000.0000 10941                  28000.0000   438487         
    469   396    28000.0000 10943                  28000.0000   440619         
Elapsed time = 3590.53 sec. (1094088.74 ticks, tree = 5.31 MB, solutions = 0)

Performing restart 1

Repeating presolve.
Tried aggregator 1 time.
Reduced MIQP has 59954 rows, 22391 columns, and 208946 nonzeros.
Reduced MIQP has 21271 binaries, 1120 generals, 0 SOSs, and 0 indicators.
Reduced MIQP objective Q matrix has 1120 nonzeros.
Presolve time = 0.17 sec. (87.95 ticks)
Tried aggregator 1 time.
Reduced MIQP has 59954 rows, 22391 columns, and 208946 nonzeros.
Reduced MIQP has 21271 binaries, 1120 generals, 0 SOSs, and 0 indicators.
Reduced MIQP objective Q matrix has 1120 nonzeros.
Presolve time = 0.16 sec. (87.79 ticks)
Represolve time = 0.48 sec. (225.39 ticks)
    489     0    28000.0000 10615                  Cuts: 5829   487504         
    489     0    28000.0000 11041                  Cuts: 6229   516659         
    489     0    28000.0000 11094                  Cuts: 6060   554015         
    489     0    28000.0000 11274                  Cuts: 6302   591475         
    489     2    28000.0000 11274                  28000.0000   591489         
    490     3    28000.0000 11501                  28000.0000   592200         
    493     6    28000.0000 11328                  28000.0000   592901         
    499    12    28000.0000 11214                  28000.0000   594631         
    509    22    28000.0000 11166                  28000.0000   597246         
    519    32    28000.0000 11145                  28000.0000   600308         
    527    40    28000.0000 11074                  28000.0000   604922         
    529    42    28000.0000 11099                  28000.0000   609065         
    534    45    27999.9937 11466                  28000.0000   619521         
    535    46    27999.8239 11126                  28000.0000   624605         
Elapsed time = 4995.76 sec. (1443434.89 ticks, tree = 0.59 MB, solutions = 0)
    536    45    infeasible                        28000.0000   630536         
    537    46    27999.0000 11058                  28000.0000   639628         
    539    48    27999.0000 11066                  28000.0000   639810         
    554    63    27998.9899 11186                  28000.0000   643099         
    556    65    27997.0434 11067                  28000.0000   649141         
    562    69    27995.6005 11372                  28000.0000   656425         
    563    70    27995.9028 11479                  28000.0000   661818         
    564    71    27995.5041 11311                  28000.0000   666862         
    565    72    27995.6479 11365                  28000.0000   671171         
    566    73    27995.3307 11354                  28000.0000   676283         
Elapsed time = 5451.55 sec. (1602670.86 ticks, tree = 0.94 MB, solutions = 0)
    567    74    27994.6567 11378                  28000.0000   681269         
    568    75    27988.5263 11015                  28000.0000   694354         
    569    76    27988.5263 11093                  28000.0000   704135         
    586    91    27982.0000 11157                  28000.0000   707093         
    590    95    27981.6667 11028                  28000.0000   712174         
    591    94    infeasible                        28000.0000   713953         
    614   115    27981.0000 11031                  28000.0000   716753         
    638   139    27981.0000 11004                  28000.0000   720021         
    639   140    27978.7243 10978                  28000.0000   725955         
    640   141    27980.5413 11426                  28000.0000   730223         
Elapsed time = 5852.61 sec. (1746784.72 ticks, tree = 1.90 MB, solutions = 0)
    641   142    27978.2617 10912                  28000.0000   740890         
    642   141    infeasible                        28000.0000   746368         
    643   140    infeasible                        28000.0000   748009         
    644   141    28000.0000 11099                  28000.0000   748099         
    663   160    27999.9508 11086                  28000.0000   751955         
    669   166    27999.6463 11043                  28000.0000   752669         
    676   171    infeasible                        28000.0000   755041         
    678   171    27078.2974 11652                  28000.0000   765728         
    679   170    infeasible                        28000.0000   785037         
    680   169    infeasible                        28000.0000   789111         
Elapsed time = 6655.16 sec. (1997489.57 ticks, tree = 2.29 MB, solutions = 0)
    681   170    28000.0000 11081                  28000.0000   789764         
    697   186    28000.0000 11057                  28000.0000   792175         
    703   192    27999.8750 10968                  28000.0000   803368         
    711   200    27995.9072 11271                  28000.0000   811078         
    712   201    27997.7820 11490                  28000.0000   817159         
    713   202    27997.6400 11028                  28000.0000   824020         
    714   203    27994.7856 11009                  28000.0000   827776         
    717   206    27988.5255 11329                  28000.0000   836145         

Mixed integer rounding cuts applied:  1
Zero-half cuts applied:  3393
Gomory fractional cuts applied:  7

Root node processing (before b&c):
  Real time             =  428.42 sec. (109334.98 ticks)
Sequential b&c:
  Real time             = 6771.59 sec. (2055765.18 ticks)
                          ------------
Total (root+branch&cut) = 7200.01 sec. (2165100.15 ticks)
Solution is infeasible.

---------------------
@@@ MIP_time_limit_infeasible
Traceback (most recent call last):
  File "/scratch/scherif/DiverseSAT-journal_sup/DiverseSAT_Supplementary_Experiments/experiment-1/cplex/jobs/../solvers/CPLEX-QP-SE.py", line 118, in <module>
    print(f">>> Benchmark {os.path.basename(cnf_file)} k {k} OPT {int(prob.solution.get_objective_value())}"
  File "/users/scherif/.local/lib/python3.9/site-packages/cplex/_internal/_subinterfaces.py", line 7211, in get_objective_value
    return CPX_PROC.getobjval(self._env._e, self._cplex._lp)
  File "/users/scherif/.local/lib/python3.9/site-packages/cplex/_internal/_procedural.py", line 2055, in getobjval
    check_status(env, status)
  File "/users/scherif/.local/lib/python3.9/site-packages/cplex/_internal/_procedural.py", line 249, in __call__
    raise CplexSolverError(error_string, env, status)
cplex.exceptions.errors.CplexSolverError: CPLEX Error  1217: No solution exists.
